c File: instances/26_0.15_3.col
c
c Description: Random graph of size 26 vertices and P(0.15000000000000002) of edges between any two vertices.
p col 26 325
e 1 20
e 1 26
e 2 4
e 2 8
e 2 10
e 2 11
e 2 16
e 2 19
e 3 15
e 3 21
e 4 13
e 4 15
e 4 19
e 4 22
e 5 8
e 5 25
e 6 16
e 7 8
e 7 22
e 8 9
e 8 12
e 8 15
e 8 17
e 8 20
e 8 21
e 9 16
e 9 17
e 9 18
e 9 20
e 9 22
e 10 13
e 10 20
e 11 15
e 12 13
e 12 16
e 12 19
e 12 20
e 13 16
e 14 19
e 14 23
e 15 17
e 15 21
e 15 26
e 16 20
e 16 23
e 17 19
e 18 19
e 18 20
e 19 25
e 20 23